NAME: sim-grid-A-65
TYPE: TSP
COMMENT: Semi-regular Grid
DIMENSION: 65
EDGE_WEIGHT_TYPE: EUC_2D
NODE_COORD_SECTION
1 50 50
2 100 50
3 300 50
4 450 50
5 500 50
6 650 50
7 700 50
8 850 50
9 900 50
10 1100 50
11 1250 50
12 1500 50
13 50 150
14 100 150
15 250 150
16 450 150
17 700 150
18 850 150
19 1050 150
20 1100 150
21 1250 150
22 1450 150
23 1500 150
24 50 300
25 150 300
26 300 300
27 400 300
28 550 300
29 800 300
30 1050 300
31 1150 300
32 1300 300
33 1400 300
34 1550 300
35 50 400
36 150 400
37 300 400
38 400 400
39 550 400
40 800 400
41 900 400
42 1150 400
43 1300 400
44 1400 400
45 1550 400
46 50 550
47 200 550
48 350 550
49 500 550
50 650 550
51 950 550
52 1100 550
53 1250 550
54 1400 550
55 1550 550
56 50 650
57 200 650
58 350 650
59 500 650
60 650 650
61 800 650
62 950 650
63 1250 650
64 1400 650
65 1550 650
EOF
